StudentsNr = 10;
InstructorsNr = 4;
DaysNr = 2;
SlotsPerDay = 15;
AvailabilitySlotsLenght = 5;
RoomNr = 1;
ProgrammNr = 1;
DegreeNr = 2;
RolesNr = 3;
CoursesNr = 8;
InstructorsProgramm = [{1}, {1}, {1}, {1}];
InstructorRolesPerProgramm = [|{2, 4}, {2, 3}, {1, 2}|];
InstructorsAvailability = [|1, 1, 0, 1, 1, 1, |1, 0, 0, 1, 1, 1, |1, 1, 1, 1, 0, 1, |1, 1, 1, 1, 1, 0|];
StudentsProgramm = [1, 1, 1, 1, 1, 1, 1, 1, 1, 1];
StudentsDegree = [1, 2, 1, 2, 2, 1, 1, 1, 1, 1];
StudentsSupervisorId = [2, 2, 4, 3, 3, 4, 2, 3, 2, 4];
StudentsCourseIds = [{1, 2, 3, 4, 5, 6, 8}, {}, {1, 3, 4, 5, 6, 7, 8}, {}, {}, {2, 3, 4, 5, 6, 7, 8}, {1, 2, 3, 4, 5, 6, 8}, {1, 3, 4, 5, 6, 7, 8}, {2, 3, 4, 5, 6, 7, 8}, {1, 2, 4, 5, 6, 7, 8}];
StudentsAvailability = [|0, 1, 1, 1, 1, 1, |0, 0, 1, 1, 0, 1, |1, 1, 1, 1, 1, 1, |1, 1, 1, 1, 1, 1, |0, 1, 1, 1, 1, 1, |1, 1, 1, 1, 1, 1, |1, 1, 1, 1, 0, 1, |1, 1, 0, 1, 1, 0, |0, 0, 0, 0, 0, 1, |0, 0, 1, 1, 1, 1|];
TheoryticalMinCard = [0, 0, 0, 0, 0, 0, 0, 0, 0, 0];
CoursesInstructorIds = [{4}, {1, 4}, {1}, {1, 3, 4}, {4}, {1, 3}, {1, 2, 3, 4}, {2}];
RolesDemands = [2, 2, 1];
RolesContinuity = [];
ExamLen = [2, 2, 2, 2, 2, 2, 2, 2, 2, 2];
LunchTsMinLen = 0;
LunchStarts = [6..9, 20..23];
SupervisorAvailable = 0;
OptimalLunchLenght = [0, 1];
OptimalStartTs = [1, 0];
OptimalFinishTs = [1, 15];
MinimizeRooms = 200;
RolesSoftContinuity = [|1, 2, 3|3, 1, 3|];
SameDegreeInRoom = 0;
Mergeability = 1;
